\ This file has been generated by DOcplex
\ ENCODING=ISO-8859-1
\Problem name: alimentos

Minimize
 obj: 90 x1 + 350 x2 + 50 x3 + 60 x4 + 50 x5
Subject To
 c1: 2750 x1 + 3250 x2 + 705 x3 + 100 x4 + 690 x5 >= 3000
 c2: 85 x1 + 165 x2 + 18 x3 + 9 x4 + 35 x5 >= 70
 c3: 920 x1 + 90 x2 + 95 x3 + 310 x4 + 1180 x5 >= 800
 c4: 160 x3 + 1900 x4 + 1600 x5 >= 500

Bounds
End
